networks/zoo_60_351/zoo_60_351-lower.txt
Number of groups: 29
Flow 1: {1 23 0} {23 2 0} {2 32 0} 
Flow 2: {23 3 0} {3 33 0} 
Flow 3: {23 4 0} {4 34 0} 
Flow 4: {23 8 0} {8 7 0} {7 37 0} 
Flow 5: {8 38 0} 
Flow 6: {23 9 0} {9 39 0} 
Flow 7: {9 10 0} {10 40 0} 
Flow 8: {9 13 0} {13 43 0} 
Flow 9: {9 14 0} {14 44 0} 
Flow 10: {23 17 0} {17 47 0} 
Flow 11: {9 20 0} {20 50 0} 
Flow 12: {23 53 0} 
Flow 13: {23 24 0} {24 54 0} 
Flow 14: {23 25 0} {25 55 0} 
Flow 15: {25 27 0} {27 57 0} 
Flow 16: {25 28 0} {28 58 0} 
Flow 17: {25 29 0} {29 59 0} 
Flow 18: {25 30 0} {30 60 0} 
Flow 19: {2 23 0} Flow 23: {3 23 0} Flow 27: {4 23 0} Flow 31: {5 8 0} {8 23 0} Flow 41: {6 9 0} {9 23 0} Flow 45: {7 8 0} Flow 64: {23 1 0} {1 31 0} 
Flow 68: {8 5 0} {5 35 0} 
Flow 72: {9 11 0} {11 41 0} 
Flow 73: {23 12 0} {12 42 0} 
Flow 76: {9 15 0} {15 45 0} 
Flow 77: {9 16 0} {16 46 0} 
Flow 79: {23 18 0} {18 48 0} 
Flow 80: {9 19 0} {19 49 0} 
Flow 82: {25 21 0} {21 51 0} 
Flow 83: {23 22 0} {22 52 0} 
Flow 87: {25 26 0} {26 56 0} 
Flow 92: {10 9 0} Flow 111: {11 9 0} Flow 115: {12 23 0} Flow 123: {13 9 0} Flow 127: {14 9 0} Flow 131: {15 9 0} Flow 135: {16 9 0} Flow 157: {17 23 0} Flow 174: {18 23 0} Flow 193: {19 9 0} Flow 215: {20 9 0} Flow 219: {21 25 0} {25 23 0} Flow 225: {22 23 0} Flow 278: {24 23 0} Flow 310: {26 25 0} Flow 311: {27 25 0} Flow 315: {28 25 0} Flow 329: {29 25 0} Flow 348: {30 25 0} Time taken running everything: 0 seconds
