networks/zoo_60_351/zoo_60_351-lower.sol
<?xml version = "1.0" encoding="UTF-8" standalone="yes"?>
<CPLEXSolution version="1.2">
 <header
   problemName="networks/zoo_60_351/zoo_60_351-lower.lp"
   solutionName="incumbent"
   solutionIndex="-1"
   objectiveValue="29"
   solutionTypeValue="3"
   solutionTypeString="primal"
   solutionStatusValue="101"
   solutionStatusString="integer optimal solution"
   solutionMethodString="mip"
   primalFeasible="1"
   dualFeasible="1"
   MIPNodes="0"
   MIPIterations="0"
   writeLevel="3"/>
 <quality
   epInt="1.0000000000000001e-05"
   epRHS="9.9999999999999995e-07"
   maxIntInfeas="0"
   maxPrimalInfeas="0"
   maxX="1"
   maxSlack="1"/>
 <variables>
  <variable name="Y(1,2)" index="1" value="1"/>
  <variable name="Y(2,3)" index="61" value="1"/>
  <variable name="Y(3,4)" index="121" value="1"/>
  <variable name="Y(4,7)" index="183" value="1"/>
  <variable name="Y(5,8)" index="243" value="1"/>
  <variable name="Y(6,9)" index="303" value="1"/>
  <variable name="Y(7,10)" index="363" value="1"/>
  <variable name="Y(8,13)" index="425" value="1"/>
  <variable name="Y(9,14)" index="485" value="1"/>
  <variable name="Y(10,17)" index="547" value="1"/>
  <variable name="Y(11,20)" index="609" value="1"/>
  <variable name="Y(12,23)" index="671" value="1"/>
  <variable name="Y(13,24)" index="731" value="1"/>
  <variable name="Y(14,25)" index="791" value="1"/>
  <variable name="Y(15,27)" index="852" value="1"/>
  <variable name="Y(16,28)" index="912" value="1"/>
  <variable name="Y(17,29)" index="972" value="1"/>
  <variable name="Y(18,30)" index="1032" value="1"/>
  <variable name="Y(64,1)" index="3717" value="1"/>
  <variable name="Y(68,5)" index="3957" value="1"/>
  <variable name="Y(72,11)" index="4199" value="1"/>
  <variable name="Y(73,12)" index="4259" value="1"/>
  <variable name="Y(76,15)" index="4439" value="1"/>
  <variable name="Y(77,16)" index="4499" value="1"/>
  <variable name="Y(79,18)" index="4619" value="1"/>
  <variable name="Y(80,19)" index="4679" value="1"/>
  <variable name="Y(82,21)" index="4799" value="1"/>
  <variable name="Y(83,22)" index="4859" value="1"/>
  <variable name="Y(87,26)" index="5099" value="1"/>
  <variable name="X(1,23,1)" index="20709" value="1"/>
  <variable name="X(1,31,64)" index="21123" value="1"/>
  <variable name="X(2,23,19)" index="21429" value="1"/>
  <variable name="X(2,32,1)" index="21762" value="1"/>
  <variable name="X(3,23,23)" index="22135" value="1"/>
  <variable name="X(3,33,2)" index="22465" value="1"/>
  <variable name="X(4,23,27)" index="22841" value="1"/>
  <variable name="X(4,34,3)" index="23168" value="1"/>
  <variable name="X(5,8,31)" index="23547" value="1"/>
  <variable name="X(5,35,68)" index="23935" value="1"/>
  <variable name="X(6,9,41)" index="24259" value="1"/>
  <variable name="X(7,8,45)" index="24614" value="1"/>
  <variable name="X(7,37,4)" index="24924" value="1"/>
  <variable name="X(8,5,68)" index="25339" value="1"/>
  <variable name="X(8,7,4)" index="25626" value="1"/>
  <variable name="X(8,23,31)" index="26004" value="1"/>
  <variable name="X(8,38,5)" index="26329" value="1"/>
  <variable name="X(9,10,7)" index="26682" value="1"/>
  <variable name="X(9,11,72)" index="27098" value="1"/>
  <variable name="X(9,13,8)" index="27385" value="1"/>
  <variable name="X(9,14,9)" index="27737" value="1"/>
  <variable name="X(9,15,76)" index="28155" value="1"/>
  <variable name="X(9,16,77)" index="28507" value="1"/>
  <variable name="X(9,19,80)" index="28861" value="1"/>
  <variable name="X(9,20,11)" index="29143" value="1"/>
  <variable name="X(9,23,41)" index="29524" value="1"/>
  <variable name="X(9,39,6)" index="29840" value="1"/>
  <variable name="X(10,9,92)" index="30277" value="1"/>
  <variable name="X(10,40,7)" index="30543" value="1"/>
  <variable name="X(11,9,111)" index="30998" value="1"/>
  <variable name="X(11,41,72)" index="31310" value="1"/>
  <variable name="X(12,23,115)" index="31704" value="1"/>
  <variable name="X(12,42,73)" index="32013" value="1"/>
  <variable name="X(13,9,123)" index="32414" value="1"/>
  <variable name="X(13,43,8)" index="32650" value="1"/>
  <variable name="X(14,9,127)" index="33120" value="1"/>
  <variable name="X(14,44,9)" index="33353" value="1"/>
  <variable name="X(15,9,131)" index="33826" value="1"/>
  <variable name="X(15,45,76)" index="34122" value="1"/>
  <variable name="X(16,9,135)" index="34532" value="1"/>
  <variable name="X(16,46,77)" index="34825" value="1"/>
  <variable name="X(17,23,157)" index="35256" value="1"/>
  <variable name="X(17,47,10)" index="35460" value="1"/>
  <variable name="X(18,23,174)" index="35975" value="1"/>
  <variable name="X(18,48,79)" index="36231" value="1"/>
  <variable name="X(19,9,193)" index="36696" value="1"/>
  <variable name="X(19,49,80)" index="36934" value="1"/>
  <variable name="X(20,9,215)" index="37420" value="1"/>
  <variable name="X(20,50,11)" index="37567" value="1"/>
  <variable name="X(21,25,219)" index="38126" value="1"/>
  <variable name="X(21,51,82)" index="38340" value="1"/>
  <variable name="X(22,23,225)" index="38834" value="1"/>
  <variable name="X(22,52,83)" index="39043" value="1"/>
  <variable name="X(23,1,64)" index="39375" value="1"/>
  <variable name="X(23,2,1)" index="39663" value="1"/>
  <variable name="X(23,3,2)" index="40015" value="1"/>
  <variable name="X(23,4,3)" index="40367" value="1"/>
  <variable name="X(23,8,4)" index="40719" value="1"/>
  <variable name="X(23,9,6)" index="41072" value="1"/>
  <variable name="X(23,12,73)" index="41490" value="1"/>
  <variable name="X(23,17,10)" index="41778" value="1"/>
  <variable name="X(23,18,79)" index="42198" value="1"/>
  <variable name="X(23,22,83)" index="42553" value="1"/>
  <variable name="X(23,24,13)" index="42834" value="1"/>
  <variable name="X(23,25,14)" index="43186" value="1"/>
  <variable name="X(23,53,12)" index="43535" value="1"/>
  <variable name="X(24,23,278)" index="44152" value="1"/>
  <variable name="X(24,54,13)" index="44238" value="1"/>
  <variable name="X(25,21,82)" index="44658" value="1"/>
  <variable name="X(25,23,219)" index="45146" value="1"/>
  <variable name="X(25,26,87)" index="45365" value="1"/>
  <variable name="X(25,27,15)" index="45644" value="1"/>
  <variable name="X(25,28,16)" index="45996" value="1"/>
  <variable name="X(25,29,17)" index="46348" value="1"/>
  <variable name="X(25,30,18)" index="46700" value="1"/>
  <variable name="X(25,55,14)" index="47047" value="1"/>
  <variable name="X(26,25,310)" index="47694" value="1"/>
  <variable name="X(26,56,87)" index="47822" value="1"/>
  <variable name="X(27,25,311)" index="48397" value="1"/>
  <variable name="X(27,57,15)" index="48452" value="1"/>
  <variable name="X(28,25,315)" index="49103" value="1"/>
  <variable name="X(28,58,16)" index="49155" value="1"/>
  <variable name="X(29,25,329)" index="49819" value="1"/>
  <variable name="X(29,59,17)" index="49858" value="1"/>
  <variable name="X(30,25,348)" index="50540" value="1"/>
  <variable name="X(30,60,18)" index="50561" value="1"/>
 </variables>
</CPLEXSolution>
